(set-option :produce-models true)
(declare-fun iniMes_mes0_aceite0 () Int)
(declare-fun comprado_mes0_aceite0 () Int)
(declare-fun refinado_mes0_aceite0 () Int)
(declare-fun iniMes_mes0_aceite1 () Int)
(declare-fun comprado_mes0_aceite1 () Int)
(declare-fun refinado_mes0_aceite1 () Int)
(declare-fun iniMes_mes0_aceite2 () Int)
(declare-fun comprado_mes0_aceite2 () Int)
(declare-fun refinado_mes0_aceite2 () Int)
(declare-fun iniMes_mes0_aceite3 () Int)
(declare-fun comprado_mes0_aceite3 () Int)
(declare-fun refinado_mes0_aceite3 () Int)
(declare-fun iniMes_mes0_aceite4 () Int)
(declare-fun comprado_mes0_aceite4 () Int)
(declare-fun refinado_mes0_aceite4 () Int)
(declare-fun iniMes_mes1_aceite0 () Int)
(declare-fun comprado_mes1_aceite0 () Int)
(declare-fun refinado_mes1_aceite0 () Int)
(declare-fun iniMes_mes1_aceite1 () Int)
(declare-fun comprado_mes1_aceite1 () Int)
(declare-fun refinado_mes1_aceite1 () Int)
(declare-fun iniMes_mes1_aceite2 () Int)
(declare-fun comprado_mes1_aceite2 () Int)
(declare-fun refinado_mes1_aceite2 () Int)
(declare-fun iniMes_mes1_aceite3 () Int)
(declare-fun comprado_mes1_aceite3 () Int)
(declare-fun refinado_mes1_aceite3 () Int)
(declare-fun iniMes_mes1_aceite4 () Int)
(declare-fun comprado_mes1_aceite4 () Int)
(declare-fun refinado_mes1_aceite4 () Int)
(declare-fun totalRefinado_mes0 () Int)
(declare-fun totalRefinado_mes1 () Int)
(declare-fun ganancias () Int)
(declare-fun costeAlmacMes () Int)
(declare-fun costeAceiteCompra () Int)
(declare-fun costes () Int)
(declare-fun beneficio () Int)
(assert (<= 0 iniMes_mes0_aceite0 ) )
(assert (<= iniMes_mes0_aceite0 1000 ) )
(assert (<= 0 comprado_mes0_aceite0 ) )
(assert (<= comprado_mes0_aceite0 1000 ) )
(assert (<= 0 refinado_mes0_aceite0 ) )
(assert (<= refinado_mes0_aceite0 1000 ) )
(assert (<= 0 iniMes_mes0_aceite1 ) )
(assert (<= iniMes_mes0_aceite1 1000 ) )
(assert (<= 0 comprado_mes0_aceite1 ) )
(assert (<= comprado_mes0_aceite1 1000 ) )
(assert (<= 0 refinado_mes0_aceite1 ) )
(assert (<= refinado_mes0_aceite1 1000 ) )
(assert (<= 0 iniMes_mes0_aceite2 ) )
(assert (<= iniMes_mes0_aceite2 1000 ) )
(assert (<= 0 comprado_mes0_aceite2 ) )
(assert (<= comprado_mes0_aceite2 1000 ) )
(assert (<= 0 refinado_mes0_aceite2 ) )
(assert (<= refinado_mes0_aceite2 1000 ) )
(assert (<= 0 iniMes_mes0_aceite3 ) )
(assert (<= iniMes_mes0_aceite3 1000 ) )
(assert (<= 0 comprado_mes0_aceite3 ) )
(assert (<= comprado_mes0_aceite3 1000 ) )
(assert (<= 0 refinado_mes0_aceite3 ) )
(assert (<= refinado_mes0_aceite3 1000 ) )
(assert (<= 0 iniMes_mes0_aceite4 ) )
(assert (<= iniMes_mes0_aceite4 1000 ) )
(assert (<= 0 comprado_mes0_aceite4 ) )
(assert (<= comprado_mes0_aceite4 1000 ) )
(assert (<= 0 refinado_mes0_aceite4 ) )
(assert (<= refinado_mes0_aceite4 1000 ) )
(assert (<= 0 iniMes_mes1_aceite0 ) )
(assert (<= iniMes_mes1_aceite0 1000 ) )
(assert (<= 0 comprado_mes1_aceite0 ) )
(assert (<= comprado_mes1_aceite0 1000 ) )
(assert (<= 0 refinado_mes1_aceite0 ) )
(assert (<= refinado_mes1_aceite0 1000 ) )
(assert (<= 0 iniMes_mes1_aceite1 ) )
(assert (<= iniMes_mes1_aceite1 1000 ) )
(assert (<= 0 comprado_mes1_aceite1 ) )
(assert (<= comprado_mes1_aceite1 1000 ) )
(assert (<= 0 refinado_mes1_aceite1 ) )
(assert (<= refinado_mes1_aceite1 1000 ) )
(assert (<= 0 iniMes_mes1_aceite2 ) )
(assert (<= iniMes_mes1_aceite2 1000 ) )
(assert (<= 0 comprado_mes1_aceite2 ) )
(assert (<= comprado_mes1_aceite2 1000 ) )
(assert (<= 0 refinado_mes1_aceite2 ) )
(assert (<= refinado_mes1_aceite2 1000 ) )
(assert (<= 0 iniMes_mes1_aceite3 ) )
(assert (<= iniMes_mes1_aceite3 1000 ) )
(assert (<= 0 comprado_mes1_aceite3 ) )
(assert (<= comprado_mes1_aceite3 1000 ) )
(assert (<= 0 refinado_mes1_aceite3 ) )
(assert (<= refinado_mes1_aceite3 1000 ) )
(assert (<= 0 iniMes_mes1_aceite4 ) )
(assert (<= iniMes_mes1_aceite4 1000 ) )
(assert (<= 0 comprado_mes1_aceite4 ) )
(assert (<= comprado_mes1_aceite4 1000 ) )
(assert (<= 0 refinado_mes1_aceite4 ) )
(assert (<= refinado_mes1_aceite4 1000 ) )
(assert (<= 0 totalRefinado_mes0 ) )
(assert (<= totalRefinado_mes0 5000 ) )
(assert (<= 0 totalRefinado_mes1 ) )
(assert (<= totalRefinado_mes1 5000 ) )
(assert (= iniMes_mes0_aceite0 40 ) )
(assert (= iniMes_mes0_aceite1 30 ) )
(assert (= iniMes_mes0_aceite2 60 ) )
(assert (= iniMes_mes0_aceite3 50 ) )
(assert (= iniMes_mes0_aceite4 20 ) )
(assert (= 40 (- (+ iniMes_mes1_aceite0 comprado_mes1_aceite0 ) refinado_mes1_aceite0 ) ) )
(assert (= 30 (- (+ iniMes_mes1_aceite1 comprado_mes1_aceite1 ) refinado_mes1_aceite1 ) ) )
(assert (= 60 (- (+ iniMes_mes1_aceite2 comprado_mes1_aceite2 ) refinado_mes1_aceite2 ) ) )
(assert (= 50 (- (+ iniMes_mes1_aceite3 comprado_mes1_aceite3 ) refinado_mes1_aceite3 ) ) )
(assert (= 20 (- (+ iniMes_mes1_aceite4 comprado_mes1_aceite4 ) refinado_mes1_aceite4 ) ) )
(assert (= iniMes_mes1_aceite0 (- (+ iniMes_mes0_aceite0 comprado_mes0_aceite0 ) refinado_mes0_aceite0 ) ) )
(assert (= iniMes_mes1_aceite1 (- (+ iniMes_mes0_aceite1 comprado_mes0_aceite1 ) refinado_mes0_aceite1 ) ) )
(assert (= iniMes_mes1_aceite2 (- (+ iniMes_mes0_aceite2 comprado_mes0_aceite2 ) refinado_mes0_aceite2 ) ) )
(assert (= iniMes_mes1_aceite3 (- (+ iniMes_mes0_aceite3 comprado_mes0_aceite3 ) refinado_mes0_aceite3 ) ) )
(assert (= iniMes_mes1_aceite4 (- (+ iniMes_mes0_aceite4 comprado_mes0_aceite4 ) refinado_mes0_aceite4 ) ) )
(assert (<= (+ refinado_mes0_aceite1 refinado_mes0_aceite0 ) 200 ) )
(assert (<= (+ refinado_mes1_aceite1 refinado_mes1_aceite0 ) 200 ) )
(assert (<= (+ refinado_mes0_aceite4 (+ refinado_mes0_aceite3 refinado_mes0_aceite2 ) ) 250 ) )
(assert (<= (+ refinado_mes1_aceite4 (+ refinado_mes1_aceite3 refinado_mes1_aceite2 ) ) 250 ) )
(assert (<= (+ comprado_mes0_aceite0 iniMes_mes0_aceite0 ) 1000 ) )
(assert (<= (+ comprado_mes0_aceite1 iniMes_mes0_aceite1 ) 1000 ) )
(assert (<= (+ comprado_mes0_aceite2 iniMes_mes0_aceite2 ) 1000 ) )
(assert (<= (+ comprado_mes0_aceite3 iniMes_mes0_aceite3 ) 1000 ) )
(assert (<= (+ comprado_mes0_aceite4 iniMes_mes0_aceite4 ) 1000 ) )
(assert (<= (+ comprado_mes1_aceite0 iniMes_mes1_aceite0 ) 1000 ) )
(assert (<= (+ comprado_mes1_aceite1 iniMes_mes1_aceite1 ) 1000 ) )
(assert (<= (+ comprado_mes1_aceite2 iniMes_mes1_aceite2 ) 1000 ) )
(assert (<= (+ comprado_mes1_aceite3 iniMes_mes1_aceite3 ) 1000 ) )
(assert (<= (+ comprado_mes1_aceite4 iniMes_mes1_aceite4 ) 1000 ) )
(assert (= totalRefinado_mes0 (+ refinado_mes0_aceite4 (+ refinado_mes0_aceite3 (+ refinado_mes0_aceite2 (+ refinado_mes0_aceite1 refinado_mes0_aceite0 ) ) ) ) ) )
(assert (= totalRefinado_mes1 (+ refinado_mes1_aceite4 (+ refinado_mes1_aceite3 (+ refinado_mes1_aceite2 (+ refinado_mes1_aceite1 refinado_mes1_aceite0 ) ) ) ) ) )
(assert (<= (+ (* refinado_mes0_aceite4 5.0 ) (+ (* refinado_mes0_aceite3 4.0 ) (+ (* refinado_mes0_aceite2 2.0 ) (+ (* refinado_mes0_aceite1 6.0 ) (* refinado_mes0_aceite0 9.0 ) ) ) ) ) (* totalRefinado_mes0 6 ) ) )
(assert (>= (+ (* refinado_mes0_aceite4 5.0 ) (+ (* refinado_mes0_aceite3 4.0 ) (+ (* refinado_mes0_aceite2 2.0 ) (+ (* refinado_mes0_aceite1 6.0 ) (* refinado_mes0_aceite0 9.0 ) ) ) ) ) (* totalRefinado_mes0 3 ) ) )
(assert (<= (+ (* refinado_mes1_aceite4 5.0 ) (+ (* refinado_mes1_aceite3 4.0 ) (+ (* refinado_mes1_aceite2 2.0 ) (+ (* refinado_mes1_aceite1 6.0 ) (* refinado_mes1_aceite0 9.0 ) ) ) ) ) (* totalRefinado_mes1 6 ) ) )
(assert (>= (+ (* refinado_mes1_aceite4 5.0 ) (+ (* refinado_mes1_aceite3 4.0 ) (+ (* refinado_mes1_aceite2 2.0 ) (+ (* refinado_mes1_aceite1 6.0 ) (* refinado_mes1_aceite0 9.0 ) ) ) ) ) (* totalRefinado_mes1 3 ) ) )
(assert (= ganancias (* 150 (+ refinado_mes1_aceite4 (+ refinado_mes1_aceite3 (+ refinado_mes1_aceite2 (+ refinado_mes1_aceite1 (+ refinado_mes1_aceite0 (+ refinado_mes0_aceite4 (+ refinado_mes0_aceite3 (+ refinado_mes0_aceite2 (+ refinado_mes0_aceite1 refinado_mes0_aceite0 ) ) ) ) ) ) ) ) ) ) ) )
(assert (= costeAlmacMes (* 3 (+ iniMes_mes1_aceite4 (+ iniMes_mes1_aceite3 (+ iniMes_mes1_aceite2 (+ iniMes_mes1_aceite1 iniMes_mes1_aceite0 ) ) ) ) ) ) )
(assert (= costeAceiteCompra (+ (* comprado_mes1_aceite4 10 ) (+ (* comprado_mes1_aceite3 9 ) (+ (* comprado_mes1_aceite2 8 ) (+ (* comprado_mes1_aceite1 9 ) (+ (* comprado_mes1_aceite0 9 ) (+ (* comprado_mes0_aceite4 11 ) (+ (* comprado_mes0_aceite3 10 ) (+ (* comprado_mes0_aceite2 12 ) (+ (* comprado_mes0_aceite1 11 ) (* comprado_mes0_aceite0 10 ) ) ) ) ) ) ) ) ) ) ) )
(assert (= costes (+ 600 (+ costeAceiteCompra costeAlmacMes ) ) ) )
(assert (= beneficio (- ganancias costes ) ) )
(assert (<= (+ (ite (> refinado_mes0_aceite4 0 ) 1 0 ) (+ (ite (> refinado_mes0_aceite3 0 ) 1 0 ) (+ (ite (> refinado_mes0_aceite2 0 ) 1 0 ) (+ (ite (> refinado_mes0_aceite1 0 ) 1 0 ) (+ (ite (> refinado_mes0_aceite0 0 ) 1 0 ) refinado_mes1_aceite2 ) ) ) ) ) 4 ) )
(assert (<= (+ (ite (> refinado_mes1_aceite4 0 ) 1 0 ) (+ (ite (> refinado_mes1_aceite3 0 ) 1 0 ) (+ (ite (> refinado_mes1_aceite2 0 ) 1 0 ) (+ (ite (> refinado_mes1_aceite1 0 ) 1 0 ) (+ (ite (> refinado_mes1_aceite0 0 ) 1 0 ) refinado_mes1_aceite2 ) ) ) ) ) 4 ) )
(assert (=> (> refinado_mes0_aceite0 0 ) (>= refinado_mes0_aceite0 50 ) ) )
(assert (=> (> refinado_mes0_aceite1 0 ) (>= refinado_mes0_aceite1 50 ) ) )
(assert (=> (> refinado_mes0_aceite2 0 ) (>= refinado_mes0_aceite2 50 ) ) )
(assert (=> (> refinado_mes0_aceite3 0 ) (>= refinado_mes0_aceite3 50 ) ) )
(assert (=> (> refinado_mes0_aceite4 0 ) (>= refinado_mes0_aceite4 50 ) ) )
(assert (=> (> refinado_mes1_aceite0 0 ) (>= refinado_mes1_aceite0 50 ) ) )
(assert (=> (> refinado_mes1_aceite1 0 ) (>= refinado_mes1_aceite1 50 ) ) )
(assert (=> (> refinado_mes1_aceite2 0 ) (>= refinado_mes1_aceite2 50 ) ) )
(assert (=> (> refinado_mes1_aceite3 0 ) (>= refinado_mes1_aceite3 50 ) ) )
(assert (=> (> refinado_mes1_aceite4 0 ) (>= refinado_mes1_aceite4 50 ) ) )
(assert (=> (> refinado_mes0_aceite0 0 ) (> refinado_mes0_aceite2 0 ) ) )
(assert (=> (> refinado_mes1_aceite0 0 ) (> refinado_mes1_aceite2 0 ) ) )
(assert (<= 150 (+ comprado_mes1_aceite0 comprado_mes0_aceite0 ) ) )
(assert (<= 0 (+ comprado_mes1_aceite1 comprado_mes0_aceite1 ) ) )
(assert (<= 0 (+ comprado_mes1_aceite2 comprado_mes0_aceite2 ) ) )
(assert (<= 250 (+ comprado_mes1_aceite3 comprado_mes0_aceite3 ) ) )
(assert (<= 0 (+ comprado_mes1_aceite4 comprado_mes0_aceite4 ) ) )
(assert (<= 200 (+ refinado_mes0_aceite4 (+ refinado_mes0_aceite3 (+ refinado_mes0_aceite2 (+ refinado_mes0_aceite1 refinado_mes0_aceite0 ) ) ) ) ) )
(assert (<= 200 (+ refinado_mes1_aceite4 (+ refinado_mes1_aceite3 (+ refinado_mes1_aceite2 (+ refinado_mes1_aceite1 refinado_mes1_aceite0 ) ) ) ) ) )
(assert (=> (> refinado_mes0_aceite4 0 ) (= refinado_mes0_aceite2 0 ) ) )
(assert (=> (> refinado_mes1_aceite4 0 ) (= refinado_mes1_aceite2 0 ) ) )
(assert (>= beneficio 50000 ) )
(assert-soft (and (>= beneficio 50000 ) (< beneficio 55000.00000000001 ) ) :weight 100.0 )
(assert-soft (and (>= beneficio 55000.00000000001 ) (< beneficio 60000.0 ) ) :weight 110.00000000000001 )
(assert-soft (and (>= beneficio 60000.0 ) (< beneficio 65000.0 ) ) :weight 120.0 )
(assert-soft (and (>= beneficio 65000.0 ) (< beneficio 70000.0 ) ) :weight 130.0 )
(assert-soft (and (>= beneficio 70000.0 ) (< beneficio 75000.0 ) ) :weight 140.0 )
(assert-soft (and (>= beneficio 75000.0 ) (< beneficio 80000.0 ) ) :weight 150.0 )
(assert-soft (and (>= beneficio 80000.0 ) (< beneficio 85000.0 ) ) :weight 160.0 )
(assert-soft (and (>= beneficio 85000.0 ) (< beneficio 90000.0 ) ) :weight 170.0 )
(assert-soft (and (>= beneficio 90000.0 ) (< beneficio 95000.0 ) ) :weight 180.0 )
(assert-soft (and (>= beneficio 95000.0 ) (< beneficio 100000 ) ) :weight 190.0 )
(assert-soft (and (>= beneficio 100000 ) (< beneficio 105000.0 ) ) :weight 200.0 )
(assert-soft (and (>= beneficio 105000.0 ) (< beneficio 110000.00000000001 ) ) :weight 210.0 )
(assert-soft (and (>= beneficio 110000.00000000001 ) (< beneficio 114999.99999999999 ) ) :weight 220.00000000000003 )
(assert-soft (and (>= beneficio 114999.99999999999 ) (< beneficio 120000.0 ) ) :weight 229.99999999999997 )
(assert-soft (and (>= beneficio 120000.0 ) (< beneficio 125000.0 ) ) :weight 240.0 )
(assert-soft (and (>= beneficio 125000.0 ) (< beneficio 130000.0 ) ) :weight 250.0 )
(assert-soft (and (>= beneficio 130000.0 ) (< beneficio 135000.0 ) ) :weight 260.0 )
(assert-soft (and (>= beneficio 135000.0 ) (< beneficio 140000.0 ) ) :weight 270.0 )
(assert-soft (and (>= beneficio 140000.0 ) (< beneficio 145000.0 ) ) :weight 280.0 )
(assert-soft (and (>= beneficio 145000.0 ) (< beneficio 150000 ) ) :weight 290.0 )
(assert-soft (and (>= beneficio 150000 ) (< beneficio 155000.0 ) ) :weight 300.0 )
(assert-soft (and (>= beneficio 155000.0 ) (< beneficio 160000.0 ) ) :weight 310.0 )
(assert-soft (and (>= beneficio 160000.0 ) (< beneficio 165000.0 ) ) :weight 320.0 )
(assert-soft (and (>= beneficio 165000.0 ) (< beneficio 170000.0 ) ) :weight 330.0 )
(assert-soft (and (>= beneficio 170000.0 ) (< beneficio 175000.0 ) ) :weight 340.0 )
(assert-soft (and (>= beneficio 175000.0 ) (< beneficio 180000.0 ) ) :weight 350.0 )
(assert-soft (and (>= beneficio 180000.0 ) (< beneficio 185000.0 ) ) :weight 360.0 )
(assert-soft (and (>= beneficio 185000.0 ) (< beneficio 190000.0 ) ) :weight 370.0 )
(assert-soft (and (>= beneficio 190000.0 ) (< beneficio 195000.0 ) ) :weight 380.0 )
(assert-soft (and (>= beneficio 195000.0 ) (< beneficio 200000 ) ) :weight 390.0 )
(assert-soft (and (>= beneficio 200000 ) (< beneficio 204999.99999999997 ) ) :weight 400.0 )
(assert-soft (and (>= beneficio 204999.99999999997 ) (< beneficio 210000.0 ) ) :weight 409.99999999999994 )
(assert-soft (and (>= beneficio 210000.0 ) (< beneficio 215000.0 ) ) :weight 420.0 )
(assert-soft (and (>= beneficio 215000.0 ) (< beneficio 220000.00000000003 ) ) :weight 430.0 )
(assert-soft (and (>= beneficio 220000.00000000003 ) (< beneficio 225000.0 ) ) :weight 440.00000000000006 )
(assert-soft (and (>= beneficio 225000.0 ) (< beneficio 229999.99999999997 ) ) :weight 450.0 )
(assert-soft (and (>= beneficio 229999.99999999997 ) (< beneficio 235000.0 ) ) :weight 459.99999999999994 )
(assert-soft (and (>= beneficio 235000.0 ) (< beneficio 240000.0 ) ) :weight 470.0 )
(assert-soft (and (>= beneficio 240000.0 ) (< beneficio 245000.00000000003 ) ) :weight 480.0 )
(assert-soft (and (>= beneficio 245000.00000000003 ) (< beneficio 250000 ) ) :weight 490.00000000000006 )
(assert-soft (and (>= beneficio 250000 ) (< beneficio 254999.99999999997 ) ) :weight 500.0 )
(assert-soft (and (>= beneficio 254999.99999999997 ) (< beneficio 260000.0 ) ) :weight 509.99999999999994 )
(assert-soft (and (>= beneficio 260000.0 ) (< beneficio 265000.0 ) ) :weight 520.0 )
(assert-soft (and (>= beneficio 265000.0 ) (< beneficio 270000.0 ) ) :weight 530.0 )
(assert-soft (and (>= beneficio 270000.0 ) (< beneficio 275000.0 ) ) :weight 540.0 )
(assert-soft (and (>= beneficio 275000.0 ) (< beneficio 280000.0 ) ) :weight 550.0 )
(assert-soft (and (>= beneficio 280000.0 ) (< beneficio 285000.0 ) ) :weight 560.0 )
(assert-soft (and (>= beneficio 285000.0 ) (< beneficio 290000.0 ) ) :weight 570.0 )
(assert-soft (and (>= beneficio 290000.0 ) (< beneficio 295000.0 ) ) :weight 580.0 )
(assert-soft (and (>= beneficio 295000.0 ) (< beneficio 300000 ) ) :weight 590.0 )
(assert-soft (and (>= beneficio 300000 ) (< beneficio 305000.0 ) ) :weight 600.0 )
(assert-soft (and (>= beneficio 305000.0 ) (< beneficio 310000.0 ) ) :weight 610.0 )
(assert-soft (and (>= beneficio 310000.0 ) (< beneficio 315000.0 ) ) :weight 620.0 )
(assert-soft (and (>= beneficio 315000.0 ) (< beneficio 320000.0 ) ) :weight 630.0 )
(assert-soft (and (>= beneficio 320000.0 ) (< beneficio 325000.0 ) ) :weight 640.0 )
(assert-soft (and (>= beneficio 325000.0 ) (< beneficio 330000.0 ) ) :weight 650.0 )
(assert-soft (and (>= beneficio 330000.0 ) (< beneficio 335000.0 ) ) :weight 660.0 )
(assert-soft (and (>= beneficio 335000.0 ) (< beneficio 340000.0 ) ) :weight 670.0 )
(assert-soft (and (>= beneficio 340000.0 ) (< beneficio 345000.0 ) ) :weight 680.0 )
(assert-soft (and (>= beneficio 345000.0 ) (< beneficio 350000 ) ) :weight 690.0 )
(assert-soft (and (>= beneficio 350000 ) (< beneficio 355000.0 ) ) :weight 700.0 )
(assert-soft (and (>= beneficio 355000.0 ) (< beneficio 360000.0 ) ) :weight 710.0 )
(assert-soft (and (>= beneficio 360000.0 ) (< beneficio 365000.0 ) ) :weight 720.0 )
(assert-soft (and (>= beneficio 365000.0 ) (< beneficio 370000.0 ) ) :weight 730.0 )
(assert-soft (and (>= beneficio 370000.0 ) (< beneficio 375000.0 ) ) :weight 740.0 )
(assert-soft (and (>= beneficio 375000.0 ) (< beneficio 380000.0 ) ) :weight 750.0 )
(assert-soft (and (>= beneficio 380000.0 ) (< beneficio 385000.0 ) ) :weight 760.0 )
(assert-soft (and (>= beneficio 385000.0 ) (< beneficio 390000.0 ) ) :weight 770.0 )
(assert-soft (and (>= beneficio 390000.0 ) (< beneficio 395000.0 ) ) :weight 780.0 )
(assert-soft (and (>= beneficio 395000.0 ) (< beneficio 400000 ) ) :weight 790.0 )
(assert-soft (and (>= beneficio 400000 ) (< beneficio 405000.0 ) ) :weight 800.0 )
(assert-soft (and (>= beneficio 405000.0 ) (< beneficio 409999.99999999994 ) ) :weight 810.0 )
(assert-soft (and (>= beneficio 409999.99999999994 ) (< beneficio 415000.00000000006 ) ) :weight 819.9999999999999 )
(assert-soft (and (>= beneficio 415000.00000000006 ) (< beneficio 420000.0 ) ) :weight 830.0000000000001 )
(assert-soft (and (>= beneficio 420000.0 ) (< beneficio 425000.0 ) ) :weight 840.0 )
(assert-soft (and (>= beneficio 425000.0 ) (< beneficio 430000.0 ) ) :weight 850.0 )
(assert-soft (and (>= beneficio 430000.0 ) (< beneficio 434999.99999999994 ) ) :weight 860.0 )
(assert-soft (and (>= beneficio 434999.99999999994 ) (< beneficio 440000.00000000006 ) ) :weight 869.9999999999999 )
(assert-soft (and (>= beneficio 440000.00000000006 ) (< beneficio 445000.0 ) ) :weight 880.0000000000001 )
(assert-soft (and (>= beneficio 445000.0 ) (< beneficio 450000 ) ) :weight 890.0 )
(assert-soft (and (>= beneficio 450000 ) (< beneficio 455000.0 ) ) :weight 900.0 )
(assert-soft (and (>= beneficio 455000.0 ) (< beneficio 459999.99999999994 ) ) :weight 910.0 )
(assert-soft (and (>= beneficio 459999.99999999994 ) (< beneficio 465000.00000000006 ) ) :weight 919.9999999999999 )
(assert-soft (and (>= beneficio 465000.00000000006 ) (< beneficio 470000.0 ) ) :weight 930.0000000000001 )
(assert-soft (and (>= beneficio 470000.0 ) (< beneficio 475000.0 ) ) :weight 940.0 )
(assert-soft (and (>= beneficio 475000.0 ) (< beneficio 480000.0 ) ) :weight 950.0 )
(assert-soft (and (>= beneficio 480000.0 ) (< beneficio 484999.99999999994 ) ) :weight 960.0 )
(assert-soft (and (>= beneficio 484999.99999999994 ) (< beneficio 490000.00000000006 ) ) :weight 969.9999999999999 )
(assert-soft (and (>= beneficio 490000.00000000006 ) (< beneficio 495000.0 ) ) :weight 980.0000000000001 )
(assert-soft (and (>= beneficio 495000.0 ) (< beneficio 500000 ) ) :weight 990.0 )
(assert-soft (and (>= beneficio 500000 ) (< beneficio 505000.0 ) ) :weight 1000.0 )
(assert-soft (and (>= beneficio 505000.0 ) (< beneficio 509999.99999999994 ) ) :weight 1010.0 )
(assert-soft (and (>= beneficio 509999.99999999994 ) (< beneficio 515000.00000000006 ) ) :weight 1019.9999999999999 )
(assert-soft (and (>= beneficio 515000.00000000006 ) (< beneficio 520000.0 ) ) :weight 1030.0 )
(assert-soft (and (>= beneficio 520000.0 ) (< beneficio 525000.0 ) ) :weight 1040.0 )
(assert-soft (and (>= beneficio 525000.0 ) (< beneficio 530000.0 ) ) :weight 1050.0 )
(assert-soft (and (>= beneficio 530000.0 ) (< beneficio 535000.0 ) ) :weight 1060.0 )
(assert-soft (and (>= beneficio 535000.0 ) (< beneficio 540000.0 ) ) :weight 1070.0 )
(assert-soft (and (>= beneficio 540000.0 ) (< beneficio 545000.0 ) ) :weight 1080.0 )
(assert-soft (and (>= beneficio 545000.0 ) (< beneficio 550000 ) ) :weight 1090.0 )
(assert-soft (>= beneficio 550000 ) :weight 10000.0 )
(check-sat)
(get-objectives)
(get-value (iniMes_mes0_aceite0) )
(get-value (comprado_mes0_aceite0) )
(get-value (refinado_mes0_aceite0) )
(get-value (iniMes_mes0_aceite1) )
(get-value (comprado_mes0_aceite1) )
(get-value (refinado_mes0_aceite1) )
(get-value (iniMes_mes0_aceite2) )
(get-value (comprado_mes0_aceite2) )
(get-value (refinado_mes0_aceite2) )
(get-value (iniMes_mes0_aceite3) )
(get-value (comprado_mes0_aceite3) )
(get-value (refinado_mes0_aceite3) )
(get-value (iniMes_mes0_aceite4) )
(get-value (comprado_mes0_aceite4) )
(get-value (refinado_mes0_aceite4) )
(get-value (totalRefinado_mes0) )
(get-value (iniMes_mes1_aceite0) )
(get-value (comprado_mes1_aceite0) )
(get-value (refinado_mes1_aceite0) )
(get-value (iniMes_mes1_aceite1) )
(get-value (comprado_mes1_aceite1) )
(get-value (refinado_mes1_aceite1) )
(get-value (iniMes_mes1_aceite2) )
(get-value (comprado_mes1_aceite2) )
(get-value (refinado_mes1_aceite2) )
(get-value (iniMes_mes1_aceite3) )
(get-value (comprado_mes1_aceite3) )
(get-value (refinado_mes1_aceite3) )
(get-value (iniMes_mes1_aceite4) )
(get-value (comprado_mes1_aceite4) )
(get-value (refinado_mes1_aceite4) )
(get-value (totalRefinado_mes1) )
(get-value (beneficio) )
